B=6;
D=1;
P=10;
S=10;
demands = [2 3 2 5 5 5 4 4 5 2 ];
capacities = [3 9 10 1 5 7 5 1 1 2 ];
dist_start = [2 6 3 6 9 6 7 4 3 9 ];
dist = [4 6 4 3 7 1 3 4 5 2 1 1 3 10 2 1 9 8 6 6 1 3 10 7 2 7 5 7 10 6 3 5 3 8 7 10 9 10 3 5 3 5 8 5 4 9 7 4 9 2 9 9 7 10 5 10 7 2 6 6 7 10 2 9 8 10 8 8 1 3 4 3 9 1 7 3 10 6 8 8 9 7 8 5 6 5 6 4 6 4 9 2 3 2 10 2 2 10 9 2 ];
